JulietBench/Juliet_Based_Patch_Bench/linux/CWE-189-Numeric-Errors/CVE_2013_2094_8176cced706b5e5d15887584150764894e94e02f/Resultsw_perf_event_destroy_Snippet_patch2EQ.smt2
; benchmark generated from python API
(set-info :status unknown)
(declare-fun R () (_ BitVec 32))
(declare-fun rdi () (_ BitVec 64))
(assert
 (let (($x49 (= (_ bv4294967294 32) R)))
 (let (($x15 (bvule rdi (_ bv1 64))))
 (let (($x40 (and $x15 $x49)))
 (let (($x42 (= (_ bv1 32) R)))
 (let (($x39 (bvugt rdi (_ bv1 64))))
 (let (($x50 (bvule rdi (_ bv8 64))))
 (let (($x43 (and $x50 $x39 $x42)))
 (let (($x136 (bvugt rdi (_ bv8 64))))
 (let (($x46 (and $x136 $x39 $x49)))
 (let (($x143 (or $x46 $x43 $x40)))
 (and $x143 $x49))))))))))))
(check-sat)
